c FILE /home/rafael/Documents/HappySet/MIHS/inputs/happygen/output/graph_d_regular_k7_p0.1_v100_20241127_084054.txt
c SOURCE This is a d-regular graph formed for the happy graph colouring problem.
c DESCRIPTION It was generated using the problem generator of Rhyd Lewis
c
c GRAPH STATS
c Seed                             = 1761744604
c Number of Nodes                  = 100
c Number of colours k              = 7
c Number of pre-assignments        = 10
c Degree of all vertices           = 6
c Density                          = 0.0606061
c 
c The degrees of nodes 1 to 100, respectively, are as follows 
c [6, 6, 6, 6, 6, 6, 6, 6, 6, 6, 6, 6, 6, 6, 6, 6, 6, 6, 6, 6, 6, 6, 6, 6, 6, 6, 
c  6, 6, 6, 6, 6, 6, 6, 6, 6, 6, 6, 6, 6, 6, 6, 6, 6, 6, 6, 6, 6, 6, 6, 6, 6, 
c  6, 6, 6, 6, 6, 6, 6, 6, 6, 6, 6, 6, 6, 6, 6, 6, 6, 6, 6, 6, 6, 6, 6, 6, 6, 
c  6, 6, 6, 6, 6, 6, 6, 6, 6, 6, 6, 6, 6, 6, 6, 6, 6, 6, 6, 6, 6, 6, 6, 6] 
c  
p edge 100 300 7
e 1 9
e 1 38
e 1 39
e 1 57
e 1 76
e 1 95
e 2 3
e 2 25
e 2 28
e 2 55
e 2 83
e 2 86
e 3 28
e 3 41
e 3 42
e 3 74
e 3 83
e 4 7
e 4 26
e 4 29
e 4 59
e 4 91
e 4 94
e 5 8
e 5 27
e 5 33
e 5 60
e 5 70
e 5 97
e 6 16
e 6 42
e 6 47
e 6 56
e 6 62
e 6 91
e 7 22
e 7 28
e 7 29
e 7 47
e 7 51
e 8 24
e 8 47
e 8 51
e 8 70
e 8 73
e 9 13
e 9 31
e 9 53
e 9 82
e 9 84
e 10 51
e 10 52
e 10 61
e 10 74
e 10 82
e 10 96
e 11 31
e 11 47
e 11 51
e 11 72
e 11 79
e 11 91
e 12 66
e 12 73
e 12 74
e 12 79
e 12 93
e 12 100
e 13 36
e 13 50
e 13 58
e 13 91
e 13 93
e 14 50
e 14 63
e 14 78
e 14 85
e 14 87
e 14 96
e 15 33
e 15 71
e 15 87
e 15 90
e 15 96
e 15 97
e 16 27
e 16 28
e 16 68
e 16 70
e 16 77
e 17 20
e 17 29
e 17 36
e 17 66
e 17 71
e 17 89
e 18 37
e 18 41
e 18 45
e 18 49
e 18 78
e 18 85
e 19 48
e 19 52
e 19 59
e 19 67
e 19 73
e 19 90
e 20 33
e 20 53
e 20 64
e 20 72
e 20 85
e 21 35
e 21 44
e 21 48
e 21 50
e 21 62
e 21 65
e 22 32
e 22 40
e 22 48
e 22 56
e 22 85
e 23 50
e 23 63
e 23 75
e 23 79
e 23 83
e 23 85
e 24 36
e 24 52
e 24 61
e 24 64
e 24 86
e 25 32
e 25 60
e 25 70
e 25 89
e 25 90
e 26 44
e 26 46
e 26 49
e 26 66
e 26 76
e 27 31
e 27 81
e 27 95
e 27 98
e 28 34
e 28 81
e 29 69
e 29 75
e 29 92
e 30 39
e 30 46
e 30 65
e 30 75
e 30 93
e 30 98
e 31 52
e 31 77
e 31 94
e 32 58
e 32 78
e 32 80
e 32 83
e 33 54
e 33 75
e 33 99
e 34 57
e 34 58
e 34 59
e 34 67
e 34 84
e 35 49
e 35 66
e 35 70
e 35 98
e 35 100
e 36 38
e 36 59
e 36 82
e 37 55
e 37 57
e 37 60
e 37 69
e 37 88
e 38 51
e 38 55
e 38 77
e 38 84
e 39 42
e 39 44
e 39 68
e 39 69
e 40 41
e 40 44
e 40 63
e 40 68
e 40 84
e 41 57
e 41 60
e 41 81
e 42 44
e 42 61
e 42 81
e 43 55
e 43 62
e 43 71
e 43 78
e 43 83
e 43 95
e 44 80
e 45 46
e 45 60
e 45 64
e 45 78
e 45 86
e 46 53
e 46 63
e 46 97
e 47 72
e 47 99
e 48 65
e 48 95
e 48 99
e 49 78
e 49 92
e 49 93
e 50 52
e 50 70
e 51 88
e 52 98
e 53 90
e 53 98
e 53 100
e 54 59
e 54 86
e 54 87
e 54 88
e 54 90
e 55 86
e 55 98
e 56 65
e 56 76
e 56 92
e 56 97
e 57 76
e 57 93
e 58 75
e 58 94
e 58 100
e 59 88
e 60 76
e 61 71
e 61 82
e 61 85
e 62 67
e 62 68
e 62 88
e 63 68
e 63 92
e 64 65
e 64 71
e 64 80
e 65 87
e 66 69
e 66 91
e 67 68
e 67 79
e 67 92
e 69 74
e 69 80
e 71 86
e 72 74
e 72 83
e 72 89
e 73 81
e 73 82
e 73 89
e 74 96
e 75 96
e 76 89
e 77 82
e 77 84
e 77 97
e 79 81
e 79 95
e 80 92
e 80 99
e 84 93
e 87 90
e 87 100
e 88 91
e 89 94
e 94 95
e 94 96
e 97 99
e 99 100
n 23 5
n 25 2
n 35 3
n 41 1
n 44 3
n 51 4
n 55 1
n 56 6
n 61 7
n 63 5
